NAME          DCAP_3_4_2_200_EV
ROWS
 N  OBJ
 L  CON1
 L  CON2
 L  CON3
 L  CON4
 L  CON5
 L  CON6
 L  CON7
 L  CON8
 L  CON9
 L  CON10
 L  CON11
 L  CON12
 E  CON13
 E  CON14
 E  CON15
 E  CON16
 E  CON17
 E  CON18
 E  CON19
 E  CON20
COLUMNS
    x[1,1]    OBJ       6.180167      CON1      1.000000    
    x[1,1]    CON7      -1.000000     CON8      -1.000000   
    x[1,2]    OBJ       5.039546      CON2      1.000000    
    x[1,2]    CON8      -1.000000   
    x[2,1]    OBJ       6.732585      CON3      1.000000    
    x[2,1]    CON9      -1.000000     CON10     -1.000000   
    x[2,2]    OBJ       7.443064      CON4      1.000000    
    x[2,2]    CON10     -1.000000   
    x[3,1]    OBJ       6.563535      CON5      1.000000    
    x[3,1]    CON11     -1.000000     CON12     -1.000000   
    x[3,2]    OBJ       6.054841      CON6      1.000000    
    x[3,2]    CON12     -1.000000   
    MARKER    'MARKER'                'INTORG'
    u[1,1]    OBJ       48.076654     CON1      -1.000000   
    u[1,2]    OBJ       49.466655     CON2      -1.000000   
    u[2,1]    OBJ       49.996186     CON3      -1.000000   
    u[2,2]    OBJ       32.230043     CON4      -1.000000   
    u[3,1]    OBJ       20.066487     CON5      -1.000000   
    u[3,2]    OBJ       27.484319     CON6      -1.000000   
    y[1,1,1]  OBJ       7.496541      CON7      1.004757    
    y[1,1,1]  CON13     1.000000    
    y[1,1,2]  OBJ       7.550054      CON8      1.017428    
    y[1,1,2]  CON14     1.000000    
    y[1,2,1]  OBJ       7.589734      CON7      1.011898    
    y[1,2,1]  CON15     1.000000    
    y[1,2,2]  OBJ       7.553628      CON8      0.992546    
    y[1,2,2]  CON16     1.000000    
    y[1,3,1]  OBJ       7.451361      CON7      1.001203    
    y[1,3,1]  CON17     1.000000    
    y[1,3,2]  OBJ       7.556007      CON8      1.038141    
    y[1,3,2]  CON18     1.000000    
    y[1,4,1]  OBJ       7.489734      CON7      1.027338    
    y[1,4,1]  CON19     1.000000    
    y[1,4,2]  OBJ       7.545024      CON8      1.023035    
    y[1,4,2]  CON20     1.000000    
    y[2,1,1]  OBJ       7.481593      CON9      1.004757    
    y[2,1,1]  CON13     1.000000    
    y[2,1,2]  OBJ       7.499581      CON10     1.017428    
    y[2,1,2]  CON14     1.000000    
    y[2,2,1]  OBJ       7.472984      CON9      1.011898    
    y[2,2,1]  CON15     1.000000    
    y[2,2,2]  OBJ       7.474969      CON10     0.992546    
    y[2,2,2]  CON16     1.000000    
    y[2,3,1]  OBJ       7.503161      CON9      1.001203    
    y[2,3,1]  CON17     1.000000    
    y[2,3,2]  OBJ       7.430462      CON10     1.038141    
    y[2,3,2]  CON18     1.000000    
    y[2,4,1]  OBJ       7.605313      CON9      1.027338    
    y[2,4,1]  CON19     1.000000    
    y[2,4,2]  OBJ       7.548993      CON10     1.023035    
    y[2,4,2]  CON20     1.000000    
    y[3,1,1]  OBJ       7.438654      CON11     1.004757    
    y[3,1,1]  CON13     1.000000    
    y[3,1,2]  OBJ       7.444952      CON12     1.017428    
    y[3,1,2]  CON14     1.000000    
    y[3,2,1]  OBJ       7.334248      CON11     1.011898    
    y[3,2,1]  CON15     1.000000    
    y[3,2,2]  OBJ       7.491255      CON12     0.992546    
    y[3,2,2]  CON16     1.000000    
    y[3,3,1]  OBJ       7.589724      CON11     1.001203    
    y[3,3,1]  CON17     1.000000    
    y[3,3,2]  OBJ       7.381102      CON12     1.038141    
    y[3,3,2]  CON18     1.000000    
    y[3,4,1]  OBJ       7.451280      CON11     1.027338    
    y[3,4,1]  CON19     1.000000    
    y[3,4,2]  OBJ       7.372148      CON12     1.023035    
    y[3,4,2]  CON20     1.000000    
    z[1,1]    OBJ       749.661870    CON13     1.000000    
    z[1,2]    OBJ       756.863694    CON14     1.000000    
    z[2,1]    OBJ       735.312366    CON15     1.000000    
    z[2,2]    OBJ       758.177437    CON16     1.000000    
    z[3,1]    OBJ       764.741353    CON17     1.000000    
    z[3,2]    OBJ       741.638841    CON18     1.000000    
    z[4,1]    OBJ       746.347393    CON19     1.000000    
    z[4,2]    OBJ       754.978411    CON20     1.000000    
    MARKER    'MARKER'                 'INTEND'
RHS
    RHS       CON1      -0.000000     CON2      -0.000000   
    RHS       CON3      -0.000000     CON4      -0.000000   
    RHS       CON5      -0.000000     CON6      -0.000000   
    RHS       CON7      -0.000000     CON8      -0.000000   
    RHS       CON9      -0.000000     CON10     -0.000000   
    RHS       CON11     -0.000000     CON12     -0.000000   
    RHS       CON13     1.000000      CON14     1.000000    
    RHS       CON15     1.000000      CON16     1.000000    
    RHS       CON17     1.000000      CON18     1.000000    
    RHS       CON19     1.000000      CON20     1.000000    
BOUNDS
 BV BOUND     u[1,1]  
 BV BOUND     u[1,2]  
 BV BOUND     u[2,1]  
 BV BOUND     u[2,2]  
 BV BOUND     u[3,1]  
 BV BOUND     u[3,2]  
 BV BOUND     y[1,1,1]
 BV BOUND     y[1,1,2]
 BV BOUND     y[1,2,1]
 BV BOUND     y[1,2,2]
 BV BOUND     y[1,3,1]
 BV BOUND     y[1,3,2]
 BV BOUND     y[1,4,1]
 BV BOUND     y[1,4,2]
 BV BOUND     y[2,1,1]
 BV BOUND     y[2,1,2]
 BV BOUND     y[2,2,1]
 BV BOUND     y[2,2,2]
 BV BOUND     y[2,3,1]
 BV BOUND     y[2,3,2]
 BV BOUND     y[2,4,1]
 BV BOUND     y[2,4,2]
 BV BOUND     y[3,1,1]
 BV BOUND     y[3,1,2]
 BV BOUND     y[3,2,1]
 BV BOUND     y[3,2,2]
 BV BOUND     y[3,3,1]
 BV BOUND     y[3,3,2]
 BV BOUND     y[3,4,1]
 BV BOUND     y[3,4,2]
 BV BOUND     z[1,1]  
 BV BOUND     z[1,2]  
 BV BOUND     z[2,1]  
 BV BOUND     z[2,2]  
 BV BOUND     z[3,1]  
 BV BOUND     z[3,2]  
 BV BOUND     z[4,1]  
 BV BOUND     z[4,2]  
ENDATA
